100
32
9
26
17
1
16
19
3
17
19
26
7
1
9
12
11
17
9
17
1
8
12
1
12
11
13
1
26
3
1
1
10
1
15
9
1
9
2
1
16
1
1
2
20
1
3
1
2
1
18
17
2
2
18
1
1
3
4
1
3
3
3
1
2
2
3
3
3
1
1
1
3
5
5
4
1
2
5
8
1
3
1
1
17
6
1
22
18
4
2
1
2
4
18
9
5
1
3
2
2
1